(set-option :produce-models true)
(set-logic QF_LRA)
(set-info :notes | Strip-packing problem.|)
(declare-fun x0 () Real)
(declare-fun y0 () Real)
(declare-fun x1 () Real)
(declare-fun y1 () Real)
(declare-fun x2 () Real)
(declare-fun y2 () Real)
(declare-fun x3 () Real)
(declare-fun y3 () Real)
(declare-fun x4 () Real)
(declare-fun y4 () Real)
(declare-fun x5 () Real)
(declare-fun y5 () Real)
(declare-fun x6 () Real)
(declare-fun y6 () Real)
(declare-fun x7 () Real)
(declare-fun y7 () Real)
(declare-fun x8 () Real)
(declare-fun y8 () Real)
(declare-fun z () Real)
(declare-fun c () Real)
(assert (and (= c z) (and (>= x0 0) 
(and (>= y0 0) 
(and (>= x1 0) 
(and (>= y1 0) 
(and (>= x2 0) 
(and (>= y2 0) 
(and (>= x3 0) 
(and (>= y3 0) 
(and (>= x4 0) 
(and (>= y4 0) 
(and (>= x5 0) 
(and (>= y5 0) 
(and (>= x6 0) 
(and (>= y6 0) 
(and (>= x7 0) 
(and (>= y7 0) 
(and (>= x8 0) 
(and (>= y8 0) 
(and (>= z 0) 
(and (>= c 0) 
(and (<= (+ x0 0.8863892159) z) 
(and (<= 0.8793849364 y0) 
(and (<= y0 1.5) 
(and (<= x0 (- 3.1947116531 0.8863892159)) 
(and (>= x0 0) 
(and (<= (+ x1 0.0663517623) z) 
(and (<= 0.6485876581 y1) 
(and (<= y1 1.5) 
(and (<= x1 (- 3.1947116531 0.0663517623)) 
(and (>= x1 0) 
(and (<= (+ x2 0.0758635903) z) 
(and (<= 0.5540015312 y2) 
(and (<= y2 1.5) 
(and (<= x2 (- 3.1947116531 0.0758635903)) 
(and (>= x2 0) 
(and (<= (+ x3 0.5583355591) z) 
(and (<= 0.5432830339 y3) 
(and (<= y3 1.5) 
(and (<= x3 (- 3.1947116531 0.5583355591)) 
(and (>= x3 0) 
(and (<= (+ x4 0.6866474652) z) 
(and (<= 0.4972834168 y4) 
(and (<= y4 1.5) 
(and (<= x4 (- 3.1947116531 0.6866474652)) 
(and (>= x4 0) 
(and (<= (+ x5 0.9969876506) z) 
(and (<= 0.4857608077 y5) 
(and (<= y5 1.5) 
(and (<= x5 (- 3.1947116531 0.9969876506)) 
(and (>= x5 0) 
(and (<= (+ x6 0.1402715548) z) 
(and (<= 0.4847201715 y6) 
(and (<= y6 1.5) 
(and (<= x6 (- 3.1947116531 0.1402715548)) 
(and (>= x6 0) 
(and (<= (+ x7 0.8728045751) z) 
(and (<= 0.1774957387 y7) 
(and (<= y7 1.5) 
(and (<= x7 (- 3.1947116531 0.8728045751)) 
(and (>= x7 0) 
(and (<= (+ x8 0.6908787699) z) 
(and (<= 0.1245873656 y8) 
(and (<= y8 1.5) 
(and (<= x8 (- 3.1947116531 0.6908787699)) 
(and (>= x8 0) 
(and (<= c 3.1947116531) 
(and (or (<= (+ x0 0.8863892159) x1) (or (<= (+ x1 0.0663517623) x0) (or (>= (- y0 0.8793849364) y1) (or (>= (- y1 0.6485876581) y0))))) 
(and (or (<= (+ x0 0.8863892159) x2) (or (<= (+ x2 0.0758635903) x0) (or (>= (- y0 0.8793849364) y2) (or (>= (- y2 0.5540015312) y0))))) 
(and (or (<= (+ x0 0.8863892159) x3) (or (<= (+ x3 0.5583355591) x0) (or (>= (- y0 0.8793849364) y3) (or (>= (- y3 0.5432830339) y0))))) 
(and (or (<= (+ x0 0.8863892159) x4) (or (<= (+ x4 0.6866474652) x0) (or (>= (- y0 0.8793849364) y4) (or (>= (- y4 0.4972834168) y0))))) 
(and (or (<= (+ x0 0.8863892159) x5) (or (<= (+ x5 0.9969876506) x0) (or (>= (- y0 0.8793849364) y5) (or (>= (- y5 0.4857608077) y0))))) 
(and (or (<= (+ x0 0.8863892159) x6) (or (<= (+ x6 0.1402715548) x0) (or (>= (- y0 0.8793849364) y6) (or (>= (- y6 0.4847201715) y0))))) 
(and (or (<= (+ x0 0.8863892159) x7) (or (<= (+ x7 0.8728045751) x0) (or (>= (- y0 0.8793849364) y7) (or (>= (- y7 0.1774957387) y0))))) 
(and (or (<= (+ x0 0.8863892159) x8) (or (<= (+ x8 0.6908787699) x0) (or (>= (- y0 0.8793849364) y8) (or (>= (- y8 0.1245873656) y0))))) 
(and (or (<= (+ x1 0.0663517623) x2) (or (<= (+ x2 0.0758635903) x1) (or (>= (- y1 0.6485876581) y2) (or (>= (- y2 0.5540015312) y1))))) 
(and (or (<= (+ x1 0.0663517623) x3) (or (<= (+ x3 0.5583355591) x1) (or (>= (- y1 0.6485876581) y3) (or (>= (- y3 0.5432830339) y1))))) 
(and (or (<= (+ x1 0.0663517623) x4) (or (<= (+ x4 0.6866474652) x1) (or (>= (- y1 0.6485876581) y4) (or (>= (- y4 0.4972834168) y1))))) 
(and (or (<= (+ x1 0.0663517623) x5) (or (<= (+ x5 0.9969876506) x1) (or (>= (- y1 0.6485876581) y5) (or (>= (- y5 0.4857608077) y1))))) 
(and (or (<= (+ x1 0.0663517623) x6) (or (<= (+ x6 0.1402715548) x1) (or (>= (- y1 0.6485876581) y6) (or (>= (- y6 0.4847201715) y1))))) 
(and (or (<= (+ x1 0.0663517623) x7) (or (<= (+ x7 0.8728045751) x1) (or (>= (- y1 0.6485876581) y7) (or (>= (- y7 0.1774957387) y1))))) 
(and (or (<= (+ x1 0.0663517623) x8) (or (<= (+ x8 0.6908787699) x1) (or (>= (- y1 0.6485876581) y8) (or (>= (- y8 0.1245873656) y1))))) 
(and (or (<= (+ x2 0.0758635903) x3) (or (<= (+ x3 0.5583355591) x2) (or (>= (- y2 0.5540015312) y3) (or (>= (- y3 0.5432830339) y2))))) 
(and (or (<= (+ x2 0.0758635903) x4) (or (<= (+ x4 0.6866474652) x2) (or (>= (- y2 0.5540015312) y4) (or (>= (- y4 0.4972834168) y2))))) 
(and (or (<= (+ x2 0.0758635903) x5) (or (<= (+ x5 0.9969876506) x2) (or (>= (- y2 0.5540015312) y5) (or (>= (- y5 0.4857608077) y2))))) 
(and (or (<= (+ x2 0.0758635903) x6) (or (<= (+ x6 0.1402715548) x2) (or (>= (- y2 0.5540015312) y6) (or (>= (- y6 0.4847201715) y2))))) 
(and (or (<= (+ x2 0.0758635903) x7) (or (<= (+ x7 0.8728045751) x2) (or (>= (- y2 0.5540015312) y7) (or (>= (- y7 0.1774957387) y2))))) 
(and (or (<= (+ x2 0.0758635903) x8) (or (<= (+ x8 0.6908787699) x2) (or (>= (- y2 0.5540015312) y8) (or (>= (- y8 0.1245873656) y2))))) 
(and (or (<= (+ x3 0.5583355591) x4) (or (<= (+ x4 0.6866474652) x3) (or (>= (- y3 0.5432830339) y4) (or (>= (- y4 0.4972834168) y3))))) 
(and (or (<= (+ x3 0.5583355591) x5) (or (<= (+ x5 0.9969876506) x3) (or (>= (- y3 0.5432830339) y5) (or (>= (- y5 0.4857608077) y3))))) 
(and (or (<= (+ x3 0.5583355591) x6) (or (<= (+ x6 0.1402715548) x3) (or (>= (- y3 0.5432830339) y6) (or (>= (- y6 0.4847201715) y3))))) 
(and (or (<= (+ x3 0.5583355591) x7) (or (<= (+ x7 0.8728045751) x3) (or (>= (- y3 0.5432830339) y7) (or (>= (- y7 0.1774957387) y3))))) 
(and (or (<= (+ x3 0.5583355591) x8) (or (<= (+ x8 0.6908787699) x3) (or (>= (- y3 0.5432830339) y8) (or (>= (- y8 0.1245873656) y3))))) 
(and (or (<= (+ x4 0.6866474652) x5) (or (<= (+ x5 0.9969876506) x4) (or (>= (- y4 0.4972834168) y5) (or (>= (- y5 0.4857608077) y4))))) 
(and (or (<= (+ x4 0.6866474652) x6) (or (<= (+ x6 0.1402715548) x4) (or (>= (- y4 0.4972834168) y6) (or (>= (- y6 0.4847201715) y4))))) 
(and (or (<= (+ x4 0.6866474652) x7) (or (<= (+ x7 0.8728045751) x4) (or (>= (- y4 0.4972834168) y7) (or (>= (- y7 0.1774957387) y4))))) 
(and (or (<= (+ x4 0.6866474652) x8) (or (<= (+ x8 0.6908787699) x4) (or (>= (- y4 0.4972834168) y8) (or (>= (- y8 0.1245873656) y4))))) 
(and (or (<= (+ x5 0.9969876506) x6) (or (<= (+ x6 0.1402715548) x5) (or (>= (- y5 0.4857608077) y6) (or (>= (- y6 0.4847201715) y5))))) 
(and (or (<= (+ x5 0.9969876506) x7) (or (<= (+ x7 0.8728045751) x5) (or (>= (- y5 0.4857608077) y7) (or (>= (- y7 0.1774957387) y5))))) 
(and (or (<= (+ x5 0.9969876506) x8) (or (<= (+ x8 0.6908787699) x5) (or (>= (- y5 0.4857608077) y8) (or (>= (- y8 0.1245873656) y5))))) 
(and (or (<= (+ x6 0.1402715548) x7) (or (<= (+ x7 0.8728045751) x6) (or (>= (- y6 0.4847201715) y7) (or (>= (- y7 0.1774957387) y6))))) 
(and (or (<= (+ x6 0.1402715548) x8) (or (<= (+ x8 0.6908787699) x6) (or (>= (- y6 0.4847201715) y8) (or (>= (- y8 0.1245873656) y6))))) 
(and (or (<= (+ x7 0.8728045751) x8) (or (<= (+ x8 0.6908787699) x7) (or (>= (- y7 0.1774957387) y8) (or (>= (- y8 0.1245873656) y7))))) ))))))))))))))))))))))))))))))))))))))))))))))))))))))))))))))))))))))))))))))))))))))))))))))))))))))))
(minimize c)
(check-sat)
(get-objectives)
(exit)
